{"problem": {"name": "carpo.erg", "mustbe": "<226.572957"}, "variables": {"N5": ["0", "1"], "N9": ["0", "1", "2"], "N19": ["0", "1"], "N20": ["0", "1", "2"], "N27": ["0", "1"], "N29": ["0", "1"], "N34": ["0", "1"], "N38": ["0", "1"], "N26": ["0", "1", "2"], "N28": ["0", "1", "2"], "N40": ["0", "1", "2"], "N41": ["0", "1", "2"], "N57": ["0", "1"], "N42": ["0", "1"], "N63": ["0", "1", "2"], "N64": ["0", "1", "2", "3"], "N65": ["0", "1", "2", "3"], "N66": ["0", "1", "2"], "N67": ["0", "1", "2", "3"], "N68": ["0", "1"], "N33": ["0", "1"], "N35": ["0", "1"], "N37": ["0", "1"], "N39": ["0", "1"], "N43": ["0", "1"], "N44": ["0", "1"], "N69": ["0", "1"], "N70": ["0", "1"], "N71": ["0", "1"], "N73": ["0", "1"], "N51": ["0", "1"], "N52": ["0", "1"], "N88": ["0", "1"], "N89": ["0", "1"], "N90": ["0", "1"], "N91": ["0", "1"], "N59": ["0", "1"], "N141": ["0", "1"], "N143": ["0", "1"], "N146": ["0", "1"], "N147": ["0", "1"], "N150": ["0", "1"], "N152": ["0", "1"], "N153": ["0", "1"], "N187": ["0", "1"], "N81": ["0", "1"], "N84": ["0", "1"], "N113": ["0", "1"], "N114": ["0", "1"], "N115": ["0", "1"], "N116": ["0", "1"], "N118": ["0", "1"], "N119": ["0", "1"], "N120": ["0", "1"], "N121": ["0", "1"], "N122": ["0", "1"], "N100": ["0", "1"], "N104": ["0", "1"], "N108": ["0", "1"], "N112": ["0", "1"], "N117": ["0", "1"]}, "functions": {"P_N5": {"scope": ["N143", "N187", "N5"], "costs": ["1.386294", "0.287682", "0.693147", "0.693147", "0.693147", "0.693147", "226.572957", "226.572957"]}, "P_N9": {"scope": ["N5", "N19", "N69", "N9"], "costs": ["0.105361", "2.995732", "2.995732", "2.302585", "0.223144", "2.302585", "2.995732", "2.302585", "0.162519", "226.572957", "226.572957", "226.572957", "2.302585", "0.223144", "2.302585", "226.572957", "226.572957", "226.572957", "226.572957", "226.572957", "226.572957", "226.572957", "226.572957", "226.572957"]}, "P_N19": {"scope": ["N19"], "costs": ["0.025318", "3.688879"]}, "P_N20": {"scope": ["N27", "N29", "N51", "N69", "N20"], "costs": ["0.020203", "4.605170", "4.605170", "1.660731", "4.605170", "0.223144", "2.040221", "3.912023", "0.162519", "226.572957", "226.572957", "226.572957", "2.995732", "1.897120", "0.223144", "226.572957", "226.572957", "226.572957", "226.572957", "226.572957", "226.572957", "226.572957", "226.572957", "226.572957", "2.995732", "0.162519", "2.302585", "226.572957", "226.572957", "226.572957", "226.572957", "226.572957", "226.572957", "226.572957", "226.572957", "226.572957", "226.572957", "226.572957", "226.572957", "226.572957", "226.572957", "226.572957", "226.572957", "226.572957", "226.572957", "226.572957", "226.572957", "226.572957"]}, "P_N27": {"scope": ["N27"], "costs": ["0.051293", "2.995732"]}, "P_N29": {"scope": ["N29"], "costs": ["0.430783", "1.049822"]}, "P_N34": {"scope": ["N34"], "costs": ["0.010050", "4.605170"]}, "P_N38": {"scope": ["N34", "N38"], "costs": ["0.010050", "4.605170", "1.386294", "0.287682"]}, "P_N26": {"scope": ["N19", "N26"], "costs": ["0.248461", "1.609438", "3.912023", "0.693147", "1.386294", "1.386294"]}, "P_N28": {"scope": ["N29", "N28"], "costs": ["0.248461", "1.609438", "3.912023", "0.916291", "0.916291", "1.609438"]}, "P_N40": {"scope": ["N5", "N19", "N40"], "costs": ["0.051293", "3.688879", "3.688879", "3.506558", "3.912023", "0.051293", "2.302585", "0.356675", "1.609438", "226.572957", "226.572957", "226.572957"]}, "P_N41": {"scope": ["N27", "N29", "N41"], "costs": ["0.020203", "4.605170", "4.605170", "2.995732", "1.897120", "0.223144", "2.995732", "0.162519", "2.302585", "226.572957", "226.572957", "226.572957"]}, "P_N57": {"scope": ["N34", "N57"], "costs": ["2.995732", "0.051293", "0.051293", "2.995732"]}, "P_N42": {"scope": ["N5", "N19", "N27", "N29", "N51", "N42"], "costs": ["0.051293", "2.995732", "1.203973", "0.356675", "0.916291", "0.510826", "226.572957", "226.572957", "1.609438", "0.223144", "226.572957", "226.572957", "226.572957", "226.572957", "226.572957", "226.572957", "1.386294", "0.287682", "226.572957", "226.572957", "226.572957", "226.572957", "226.572957", "226.572957", "226.572957", "226.572957", "226.572957", "226.572957", "226.572957", "226.572957", "226.572957", "226.572957", "0.916291", "0.510826", "226.572957", "226.572957", "226.572957", "226.572957", "226.572957", "226.572957", "226.572957", "226.572957", "226.572957", "226.572957", "226.572957", "226.572957", "226.572957", "226.572957", "226.572957", "226.572957", "226.572957", "226.572957", "226.572957", "226.572957", "226.572957", "226.572957", "226.572957", "226.572957", "226.572957", "226.572957", "226.572957", "226.572957", "226.572957", "226.572957"]}, "P_N63": {"scope": ["N5", "N19", "N51", "N69", "N63"], "costs": ["0.030459", "3.912023", "4.605170", "0.072571", "2.995732", "3.912023", "0.510826", "1.203973", "2.302585", "226.572957", "226.572957", "226.572957", "0.162519", "2.302585", "2.995732", "226.572957", "226.572957", "226.572957", "226.572957", "226.572957", "226.572957", "226.572957", "226.572957", "226.572957", "0.162519", "2.302585", "2.995732", "226.572957", "226.572957", "226.572957", "226.572957", "226.572957", "226.572957", "226.572957", "226.572957", "226.572957", "226.572957", "226.572957", "226.572957", "226.572957", "226.572957", "226.572957", "226.572957", "226.572957", "226.572957", "226.572957", "226.572957", "226.572957"]}, "P_N64": {"scope": ["N29", "N27", "N64"], "costs": ["0.021224", "4.605170", "4.605170", "6.907755", "0.798508", "0.693147", "226.572957", "2.995732", "1.203973", "1.609438", "0.916291", "2.302585", "226.572957", "226.572957", "226.572957", "226.572957"]}, "P_N65": {"scope": ["N5", "N19", "N65"], "costs": ["0.030459", "4.605170", "4.605170", "4.605170", "0.798508", "226.572957", "0.693147", "2.995732", "0.916291", "0.693147", "2.995732", "2.995732", "226.572957", "226.572957", "226.572957", "226.572957"]}, "P_N66": {"scope": ["N19", "N29", "N69", "N66"], "costs": ["0.020203", "4.605170", "4.605170", "0.287682", "2.995732", "1.609438", "0.020203", "3.912023", "226.572957", "226.572957", "226.572957", "226.572957", "0.918794", "6.907755", "0.510826", "226.572957", "226.572957", "226.572957", "226.572957", "226.572957", "226.572957", "226.572957", "226.572957", "226.572957"]}, "P_N67": {"scope": ["N27", "N29", "N51", "N69", "N67"], "costs": ["0.020203", "4.605170", "4.605170", "226.572957", "0.287682", "1.609438", "2.995732", "226.572957", "0.693147", "0.916291", "2.302585", "226.572957", "226.572957", "226.572957", "226.572957", "226.572957", "1.386294", "0.510826", "2.302585", "2.995732", "226.572957", "226.572957", "226.572957", "226.572957", "226.572957", "226.572957", "226.572957", "226.572957", "226.572957", "226.572957", "226.572957", "226.572957", "1.609438", "0.510826", "2.302585", "2.302585", "226.572957", "226.572957", "226.572957", "226.572957", "226.572957", "226.572957", "226.572957", "226.572957", "226.572957", "226.572957", "226.572957", "226.572957", "226.572957", "226.572957", "226.572957", "226.572957", "226.572957", "226.572957", "226.572957", "226.572957", "226.572957", "226.572957", "226.572957", "226.572957", "226.572957", "226.572957", "226.572957", "226.572957"]}, "P_N68": {"scope": ["N34", "N68"], "costs": ["0.020203", "3.912023", "1.203973", "0.356675"]}, "P_N33": {"scope": ["N5", "N33"], "costs": ["0.010050", "4.605170", "2.302585", "0.105361"]}, "P_N35": {"scope": ["N5", "N35"], "costs": ["0.051293", "2.995732", "1.609438", "0.223144"]}, "P_N37": {"scope": ["N27", "N37"], "costs": ["0.051293", "2.995732", "1.203973", "0.356675"]}, "P_N39": {"scope": ["N19", "N39"], "costs": ["0.051293", "2.995732", "1.203973", "0.356675"]}, "P_N43": {"scope": ["N29", "N43"], "costs": ["0.020203", "3.912023", "1.203973", "0.356675"]}, "P_N44": {"scope": ["N34", "N44"], "costs": ["0.020203", "3.912023", "1.897120", "0.162519"]}, "P_N69": {"scope": ["N69"], "costs": ["0.030459", "3.506558"]}, "P_N70": {"scope": ["N70"], "costs": ["0.010050", "4.605170"]}, "P_N71": {"scope": ["N71"], "costs": ["0.002002", "6.214608"]}, "P_N73": {"scope": ["N73"], "costs": ["0.002002", "6.214608"]}, "P_N51": {"scope": ["N70", "N73", "N51"], "costs": ["0.020203", "3.912023", "1.609438", "0.223144", "2.995732", "0.051293", "226.572957", "226.572957"]}, "P_N52": {"scope": ["N51", "N52"], "costs": ["0.020203", "3.912023", "0.693147", "0.693147"]}, "P_N88": {"scope": ["N70", "N88"], "costs": ["0.020203", "3.912023", "1.609438", "0.223144"]}, "P_N89": {"scope": ["N69", "N89"], "costs": ["0.020203", "3.912023", "1.897120", "0.162519"]}, "P_N90": {"scope": ["N69", "N90"], "costs": ["0.693147", "0.693147", "1.609438", "0.223144"]}, "P_N91": {"scope": ["N69", "N91"], "costs": ["0.051293", "2.995732", "1.386294", "0.287682"]}, "P_N59": {"scope": ["N69", "N71", "N59"], "costs": ["0.020203", "3.912023", "1.897120", "0.162519", "0.916291", "0.510826", "226.572957", "226.572957"]}, "P_N141": {"scope": ["N152", "N143", "N147", "N146", "N153", "N141"], "costs": ["0.051293", "2.995732", "0.693147", "0.693147", "0.693147", "0.693147", "226.572957", "226.572957", "0.693147", "0.693147", "226.572957", "226.572957", "226.572957", "226.572957", "226.572957", "226.572957", "0.693147", "0.693147", "226.572957", "226.572957", "226.572957", "226.572957", "226.572957", "226.572957", "226.572957", "226.572957", "226.572957", "226.572957", "226.572957", "226.572957", "226.572957", "226.572957", "0.693147", "0.693147", "226.572957", "226.572957", "226.572957", "226.572957", "226.572957", "226.572957", "226.572957", "226.572957", "226.572957", "226.572957", "226.572957", "226.572957", "226.572957", "226.572957", "226.572957", "226.572957", "226.572957", "226.572957", "226.572957", "226.572957", "226.572957", "226.572957", "226.572957", "226.572957", "226.572957", "226.572957", "226.572957", "226.572957", "226.572957", "226.572957"]}, "P_N143": {"scope": ["N143"], "costs": ["0.105361", "2.302585"]}, "P_N146": {"scope": ["N146"], "costs": ["0.030459", "3.506558"]}, "P_N147": {"scope": ["N147"], "costs": ["0.010050", "4.605170"]}, "P_N150": {"scope": ["N150"], "costs": ["1.203973", "0.356675"]}, "P_N152": {"scope": ["N152"], "costs": ["0.010050", "4.605170"]}, "P_N153": {"scope": ["N153"], "costs": ["0.001000", "6.907755"]}, "P_N187": {"scope": ["N150", "N187"], "costs": ["-0.000000", "226.572957", "0.051293", "2.995732"]}, "P_N81": {"scope": ["N141", "N81"], "costs": ["0.010050", "4.605170", "4.605170", "0.010050"]}, "P_N84": {"scope": ["N141", "N84"], "costs": ["0.010050", "4.605170", "4.605170", "0.010050"]}, "P_N113": {"scope": ["N141", "N113"], "costs": ["0.051293", "2.995732", "2.302585", "0.105361"]}, "P_N114": {"scope": ["N69", "N114"], "costs": ["0.223144", "1.609438", "1.897120", "0.162519"]}, "P_N115": {"scope": ["N51", "N115"], "costs": ["0.287682", "1.386294", "2.302585", "0.105361"]}, "P_N116": {"scope": ["N71", "N116"], "costs": ["0.105361", "2.302585", "2.995732", "0.051293"]}, "P_N118": {"scope": ["N5", "N118"], "costs": ["0.223144", "1.609438", "3.506558", "0.030459"]}, "P_N119": {"scope": ["N19", "N119"], "costs": ["0.162519", "1.897120", "2.995732", "0.051293"]}, "P_N120": {"scope": ["N27", "N120"], "costs": ["0.105361", "2.302585", "2.995732", "0.051293"]}, "P_N121": {"scope": ["N29", "N121"], "costs": ["0.162519", "1.897120", "2.995732", "0.051293"]}, "P_N122": {"scope": ["N34", "N122"], "costs": ["0.287682", "1.386294", "2.302585", "0.105361"]}, "P_N100": {"scope": ["N69", "N100"], "costs": ["0.693147", "0.693147", "1.609438", "0.223144"]}, "P_N104": {"scope": ["N70", "N104"], "costs": ["0.051293", "2.995732", "1.386294", "0.287682"]}, "P_N108": {"scope": ["N69", "N108"], "costs": ["0.105361", "2.302585", "3.506558", "0.030459"]}, "P_N112": {"scope": ["N73", "N112"], "costs": ["0.010050", "4.605170", "4.605170", "0.010050"]}, "P_N117": {"scope": ["N73", "N117"], "costs": ["0.010050", "4.605170", "4.605170", "0.010050"]}}}
